% Auto-generated by scripts/generate_dzn.py
% problem_type   = regex
% instance       = regex_72
% source_json    = instances_json/0_low_blowup/regex_72.json
% blowup         = 1.8
% representation = DFA

mode = 0;

var_count = 20;
n_constraints = 2;
Q = 28;
S = 3;
q0 = [1, 1];
F = [{20, 21, 22, 23, 24, 25, 26, 27, 28}, {16}];
weights = [5, 3, 9, 8, 1, 10, 4, 7, 10, 8, 2, 6, 5, 2, 4, 5, 9, 6, 3, 5];
d_dfa = array3d(1..2, 1..28, 1..3, [
  % k = 1
    1, 2, 1,
    1, 3, 1,
    4, 3, 1,
    6, 5, 6,
    8, 7, 8,
    8, 9, 8,
    11, 10, 12,
    12, 13, 12,
    12, 10, 12,
    15, 14, 16,
    18, 17, 18,
    16, 19, 16,
    16, 14, 16,
    21, 20, 22,
    24, 23, 24,
    22, 25, 22,
    27, 26, 27,
    27, 28, 27,
    22, 20, 22,
    4, 3, 1,
    6, 5, 6,
    1, 2, 1,
    8, 7, 8,
    8, 9, 8,
    1, 3, 1,
    11, 10, 12,
    12, 13, 12,
    12, 10, 12,

  % k = 2
    1, 2, 1,
    2, 3, 2,
    3, 4, 3,
    4, 5, 4,
    5, 6, 5,
    6, 7, 6,
    7, 8, 7,
    8, 9, 8,
    9, 10, 9,
    10, 11, 10,
    11, 12, 11,
    12, 13, 12,
    13, 14, 13,
    14, 15, 14,
    15, 16, 15,
    16, 17, 16,
    17, 17, 17,
    0, 0, 0,
    0, 0, 0,
    0, 0, 0,
    0, 0, 0,
    0, 0, 0,
    0, 0, 0,
    0, 0, 0,
    0, 0, 0,
    0, 0, 0,
    0, 0, 0,
    0, 0, 0
]);
d_nfa = array3d(1..2, 1..28, 1..3, [
  % k = 1
    {}, {}, {},
    {}, {}, {},
    {}, {}, {},
    {}, {}, {},
    {}, {}, {},
    {}, {}, {},
    {}, {}, {},
    {}, {}, {},
    {}, {}, {},
    {}, {}, {},
    {}, {}, {},
    {}, {}, {},
    {}, {}, {},
    {}, {}, {},
    {}, {}, {},
    {}, {}, {},
    {}, {}, {},
    {}, {}, {},
    {}, {}, {},
    {}, {}, {},
    {}, {}, {},
    {}, {}, {},
    {}, {}, {},
    {}, {}, {},
    {}, {}, {},
    {}, {}, {},
    {}, {}, {},
    {}, {}, {},

  % k = 2
    {}, {}, {},
    {}, {}, {},
    {}, {}, {},
    {}, {}, {},
    {}, {}, {},
    {}, {}, {},
    {}, {}, {},
    {}, {}, {},
    {}, {}, {},
    {}, {}, {},
    {}, {}, {},
    {}, {}, {},
    {}, {}, {},
    {}, {}, {},
    {}, {}, {},
    {}, {}, {},
    {}, {}, {},
    {}, {}, {},
    {}, {}, {},
    {}, {}, {},
    {}, {}, {},
    {}, {}, {},
    {}, {}, {},
    {}, {}, {},
    {}, {}, {},
    {}, {}, {},
    {}, {}, {},
    {}, {}, {}
]);
